DIMACS_lns/graph-1000-113.col
p edge 1000 1817
e 2 824
e 2 357
e 2 607
e 3 139
e 3 758
e 3 294
e 4 457
e 4 301
e 4 108
e 4 861
e 6 546
e 6 430
e 6 900
e 6 107
e 7 553
e 7 374
e 7 655
e 7 652
e 8 377
e 8 571
e 8 502
e 8 998
e 8 686
e 8 324
e 9 861
e 9 763
e 9 849
e 9 379
e 9 652
e 9 658
e 9 417
e 10 868
e 10 168
e 10 926
e 10 605
e 10 956
e 10 71
e 11 462
e 11 192
e 11 458
e 11 130
e 11 520
e 11 707
e 12 39
e 12 682
e 12 515
e 12 292
e 13 385
e 13 731
e 13 990
e 13 215
e 14 554
e 14 796
e 14 306
e 14 776
e 15 685
e 15 576
e 15 286
e 16 709
e 16 431
e 16 412
e 17 640
e 17 570
e 17 444
e 17 428
e 17 311
e 17 509
e 18 345
e 18 251
e 18 341
e 18 883
e 19 89
e 19 868
e 19 866
e 19 567
e 20 35
e 20 713
e 20 653
e 20 624
e 21 170
e 21 938
e 21 22
e 21 86
e 21 544
e 22 440
e 22 861
e 22 558
e 22 455
e 22 847
e 23 63
e 23 706
e 23 762
e 24 341
e 24 439
e 24 737
e 24 404
e 25 291
e 25 997
e 25 993
e 25 946
e 26 722
e 26 279
e 26 129
e 27 574
e 27 35
e 27 280
e 27 142
e 28 552
e 28 299
e 28 468
e 28 496
e 28 989
e 28 353
e 28 44
e 28 405
e 28 64
e 29 793
e 29 124
e 29 647
e 30 760
e 30 846
e 30 502
e 33 451
e 33 850
e 33 668
e 34 120
e 34 71
e 34 49
e 34 249
e 34 155
e 35 558
e 35 387
e 35 257
e 35 534
e 35 738
e 35 433
e 35 491
e 36 45
e 36 881
e 36 66
e 36 908
e 37 749
e 37 921
e 37 145
e 37 440
e 37 116
e 37 94
e 37 700
e 38 215
e 38 482
e 38 113
e 38 942
e 38 889
e 39 251
e 39 891
e 39 624
e 40 734
e 40 429
e 40 292
e 42 669
e 42 696
e 42 134
e 43 273
e 43 516
e 43 483
e 43 552
e 43 601
e 44 494
e 44 706
e 44 685
e 44 606
e 44 434
e 44 677
e 44 771
e 44 328
e 45 542
e 45 193
e 45 773
e 47 619
e 47 793
e 47 905
e 47 861
e 47 385
e 47 987
e 49 370
e 49 137
e 49 670
e 49 75
e 50 366
e 50 600
e 50 558
e 50 930
e 50 302
e 50 181
e 51 390
e 51 311
e 51 737
e 51 481
e 51 846
e 52 750
e 52 564
e 52 160
e 52 300
e 52 606
e 53 941
e 53 270
e 53 164
e 54 239
e 54 942
e 54 652
e 54 463
e 54 327
e 54 142
e 55 238
e 55 431
e 55 662
e 55 460
e 55 378
e 55 201
e 55 169
e 55 946
e 55 483
e 56 940
e 56 326
e 56 99
e 56 160
e 56 94
e 56 472
e 57 721
e 57 906
e 57 600
e 57 243
e 58 720
e 58 395
e 58 558
e 59 448
e 59 475
e 59 352
e 59 870
e 59 112
e 60 752
e 60 1000
e 60 693
e 60 964
e 60 816
e 60 114
e 60 700
e 63 203
e 63 525
e 63 865
e 63 428
e 63 686
e 64 360
e 64 929
e 64 648
e 64 972
e 66 257
e 66 677
e 66 301
e 66 106
e 67 516
e 67 430
e 67 648
e 67 900
e 67 534
e 68 932
e 68 711
e 68 807
e 68 307
e 68 601
e 68 954
e 69 968
e 69 873
e 69 880
e 69 466
e 69 987
e 70 421
e 70 247
e 70 71
e 71 833
e 71 235
e 71 778
e 71 420
e 71 668
e 71 993
e 72 932
e 72 274
e 72 406
e 72 651
e 73 230
e 73 191
e 73 402
e 73 587
e 73 404
e 74 112
e 74 673
e 74 197
e 75 126
e 75 198
e 75 728
e 76 231
e 76 713
e 76 148
e 76 587
e 76 573
e 76 390
e 76 846
e 76 668
e 77 383
e 77 949
e 77 807
e 77 391
e 77 673
e 77 997
e 77 791
e 77 499
e 77 934
e 80 950
e 80 435
e 80 237
e 80 439
e 82 479
e 82 381
e 82 342
e 82 530
e 84 971
e 84 163
e 84 833
e 84 89
e 84 769
e 84 457
e 84 993
e 86 396
e 86 915
e 86 791
e 86 459
e 86 783
e 88 425
e 88 327
e 88 967
e 88 676
e 89 407
e 89 913
e 89 938
e 90 788
e 90 238
e 90 441
e 91 292
e 91 250
e 91 446
e 91 435
e 91 225
e 91 809
e 91 582
e 92 521
e 92 667
e 92 117
e 92 303
e 93 740
e 93 347
e 93 98
e 94 564
e 94 498
e 94 566
e 94 330
e 97 797
e 97 588
e 97 732
e 97 491
e 97 906
e 97 123
e 97 899
e 98 927
e 98 114
e 98 911
e 99 224
e 99 457
e 99 458
e 100 812
e 100 983
e 100 106
e 100 669
e 100 529
e 101 335
e 101 967
e 101 411
e 106 802
e 106 651
e 106 410
e 107 841
e 107 447
e 107 513
e 108 696
e 108 496
e 108 477
e 108 778
e 109 148
e 109 588
e 109 421
e 109 417
e 109 847
e 109 249
e 110 811
e 110 164
e 110 964
e 110 399
e 111 304
e 111 229
e 111 982
e 112 866
e 112 381
e 112 785
e 112 1000
e 112 236
e 113 595
e 113 908
e 113 971
e 113 122
e 114 667
e 116 708
e 116 452
e 116 194
e 116 200
e 117 412
e 117 625
e 117 713
e 117 449
e 118 852
e 118 172
e 118 869
e 118 519
e 119 381
e 119 605
e 119 916
e 119 283
e 120 215
e 120 465
e 120 737
e 120 623
e 122 998
e 122 807
e 122 302
e 123 894
e 123 422
e 123 571
e 123 978
e 124 959
e 124 415
e 124 585
e 124 632
e 125 300
e 125 871
e 125 920
e 125 137
e 126 967
e 126 909
e 126 951
e 129 576
e 129 935
e 129 524
e 129 573
e 129 796
e 130 291
e 130 794
e 131 369
e 131 963
e 131 389
e 131 395
e 134 404
e 134 920
e 134 508
e 134 905
e 134 978
e 134 882
e 135 898
e 135 939
e 135 481
e 135 595
e 136 805
e 136 152
e 136 973
e 136 306
e 137 652
e 137 410
e 137 191
e 137 751
e 137 402
e 138 934
e 138 830
e 138 431
e 139 911
e 139 556
e 139 653
e 139 527
e 139 833
e 140 531
e 140 618
e 140 342
e 140 251
e 140 454
e 140 547
e 141 986
e 141 677
e 141 409
e 142 534
e 142 407
e 142 935
e 143 264
e 143 797
e 143 380
e 143 987
e 143 558
e 143 863
e 143 246
e 143 287
e 143 569
e 145 824
e 145 504
e 145 546
e 145 616
e 146 831
e 146 667
e 146 390
e 147 659
e 147 267
e 147 663
e 148 612
e 148 204
e 148 956
e 149 805
e 149 455
e 149 348
e 149 722
e 152 369
e 152 887
e 152 233
e 152 473
e 153 316
e 153 212
e 153 916
e 153 224
e 155 774
e 155 839
e 155 254
e 155 990
e 157 369
e 157 707
e 157 452
e 157 379
e 158 643
e 158 580
e 158 330
e 159 909
e 159 391
e 159 553
e 159 869
e 159 545
e 159 621
e 159 607
e 160 604
e 160 454
e 160 1000
e 160 673
e 160 363
e 163 648
e 163 807
e 164 635
e 164 661
e 165 936
e 165 395
e 165 823
e 165 324
e 167 612
e 167 531
e 167 786
e 168 366
e 168 670
e 168 493
e 169 271
e 169 402
e 170 304
e 170 527
e 170 887
e 170 484
e 171 477
e 171 203
e 171 389
e 171 730
e 172 752
e 172 741
e 173 986
e 173 243
e 173 732
e 173 932
e 174 898
e 174 520
e 174 640
e 177 445
e 177 229
e 177 750
e 180 546
e 180 262
e 180 578
e 180 981
e 180 717
e 181 727
e 181 737
e 181 748
e 181 950
e 181 280
e 185 815
e 185 187
e 185 610
e 185 318
e 185 778
e 185 834
e 186 655
e 186 730
e 186 528
e 186 998
e 187 764
e 187 268
e 187 314
e 190 908
e 190 847
e 190 854
e 190 226
e 190 556
e 190 204
e 191 932
e 192 294
e 192 512
e 192 595
e 192 945
e 192 641
e 192 833
e 193 854
e 193 936
e 193 254
e 194 571
e 194 990
e 194 560
e 194 752
e 194 734
e 194 615
e 194 727
e 194 825
e 194 986
e 196 295
e 196 750
e 196 642
e 197 548
e 197 425
e 197 586
e 197 366
e 198 399
e 198 447
e 198 546
e 198 913
e 198 960
e 198 358
e 198 578
e 199 243
e 199 649
e 199 821
e 199 211
e 200 391
e 200 480
e 200 941
e 200 460
e 201 371
e 201 592
e 203 374
e 203 943
e 204 553
e 206 355
e 206 446
e 206 899
e 206 451
e 206 792
e 209 429
e 209 457
e 209 703
e 209 844
e 209 327
e 210 307
e 210 944
e 210 424
e 211 516
e 211 823
e 212 437
e 212 464
e 212 880
e 213 563
e 213 606
e 213 920
e 213 759
e 214 443
e 214 482
e 214 331
e 214 255
e 215 313
e 215 456
e 221 613
e 221 424
e 221 543
e 221 760
e 223 303
e 223 835
e 223 963
e 223 344
e 223 263
e 223 343
e 223 238
e 224 862
e 224 547
e 225 473
e 225 425
e 225 328
e 226 659
e 226 315
e 226 792
e 229 818
e 229 830
e 230 475
e 230 405
e 231 448
e 231 530
e 233 398
e 233 683
e 233 559
e 235 390
e 235 376
e 236 765
e 236 375
e 236 582
e 236 620
e 236 269
e 237 891
e 237 693
e 238 475
e 238 348
e 238 839
e 238 663
e 238 402
e 239 909
e 239 956
e 240 356
e 240 924
e 240 512
e 240 265
e 240 906
e 240 510
e 241 437
e 241 946
e 241 693
e 241 467
e 241 531
e 241 986
e 243 440
e 244 481
e 244 269
e 244 926
e 246 938
e 246 741
e 247 940
e 247 899
e 247 831
e 248 726
e 248 780
e 248 572
e 249 781
e 249 652
e 249 580
e 249 637
e 250 821
e 250 598
e 251 786
e 251 933
e 251 486
e 252 938
e 252 452
e 252 270
e 253 570
e 253 497
e 253 457
e 253 684
e 254 324
e 254 714
e 254 859
e 254 409
e 254 805
e 254 816
e 255 899
e 255 318
e 255 971
e 257 431
e 257 843
e 257 468
e 257 414
e 260 733
e 260 816
e 260 338
e 261 660
e 261 451
e 261 734
e 262 962
e 262 901
e 262 776
e 262 324
e 263 375
e 263 539
e 263 940
e 263 647
e 263 616
e 264 945
e 264 825
e 264 639
e 264 964
e 264 421
e 265 959
e 265 929
e 265 617
e 265 804
e 265 363
e 265 633
e 266 642
e 266 1000
e 266 971
e 266 774
e 267 295
e 267 887
e 267 710
e 268 778
e 268 408
e 269 660
e 269 773
e 269 693
e 269 455
e 270 294
e 270 542
e 270 632
e 270 483
e 270 798
e 270 378
e 270 956
e 271 648
e 271 758
e 271 869
e 273 391
e 273 513
e 274 430
e 274 334
e 279 333
e 279 837
e 279 451
e 280 859
e 282 556
e 282 643
e 282 901
e 282 752
e 283 590
e 283 527
e 283 964
e 285 673
e 285 931
e 285 905
e 286 553
e 286 347
e 287 294
e 287 521
e 287 783
e 287 917
e 287 774
e 289 787
e 289 371
e 289 836
e 289 618
e 289 327
e 291 921
e 291 749
e 291 756
e 291 892
e 291 474
e 291 521
e 291 549
e 292 437
e 292 729
e 292 544
e 292 438
e 292 554
e 294 609
e 294 561
e 295 706
e 295 419
e 295 585
e 295 899
e 295 464
e 295 658
e 295 488
e 295 887
e 298 990
e 298 717
e 298 405
e 298 824
e 299 886
e 299 685
e 300 986
e 300 861
e 300 850
e 300 911
e 300 309
e 301 564
e 302 658
e 302 749
e 302 338
e 302 738
e 303 960
e 303 598
e 303 787
e 303 333
e 303 916
e 304 361
e 304 330
e 304 811
e 304 620
e 304 608
e 306 545
e 306 725
e 307 479
e 307 331
e 307 608
e 308 510
e 308 676
e 308 425
e 308 791
e 309 353
e 309 762
e 309 425
e 309 586
e 309 821
e 309 687
e 311 880
e 311 580
e 311 670
e 311 838
e 312 482
e 312 327
e 312 525
e 312 693
e 313 954
e 313 385
e 313 593
e 313 450
e 314 888
e 314 728
e 314 897
e 315 908
e 315 529
e 316 692
e 316 775
e 316 363
e 316 996
e 318 425
e 321 765
e 321 333
e 321 424
e 321 873
e 321 878
e 321 643
e 321 672
e 321 441
e 324 553
e 324 450
e 324 919
e 324 378
e 324 887
e 324 903
e 324 791
e 324 422
e 324 935
e 326 927
e 326 602
e 327 776
e 327 371
e 327 406
e 328 726
e 328 550
e 328 421
e 328 434
e 329 414
e 329 400
e 329 582
e 330 430
e 330 559
e 330 440
e 330 756
e 331 976
e 331 791
e 331 825
e 331 747
e 331 905
e 332 940
e 332 733
e 332 995
e 333 662
e 333 467
e 334 765
e 334 343
e 335 605
e 335 928
e 337 682
e 337 575
e 337 362
e 337 982
e 338 893
e 338 352
e 341 466
e 342 518
e 343 469
e 343 477
e 343 926
e 343 711
e 343 715
e 344 829
e 344 715
e 344 573
e 344 575
e 344 750
e 344 457
e 344 859
e 345 371
e 345 825
e 345 785
e 345 592
e 345 881
e 345 637
e 347 962
e 347 684
e 348 439
e 348 621
e 352 538
e 352 762
e 352 837
e 353 562
e 353 531
e 353 888
e 353 812
e 353 901
e 353 967
e 354 540
e 354 681
e 354 484
e 354 961
e 354 497
e 354 929
e 355 984
e 355 600
e 355 871
e 355 676
e 356 715
e 356 900
e 356 425
e 357 647
e 357 590
e 357 687
e 357 547
e 357 429
e 358 710
e 358 937
e 358 372
e 358 612
e 359 376
e 359 738
e 359 420
e 360 631
e 360 443
e 360 400
e 360 391
e 361 839
e 361 700
e 362 614
e 362 598
e 362 786
e 362 417
e 362 380
e 363 401
e 363 608
e 363 558
e 365 653
e 365 819
e 365 627
e 365 391
e 365 749
e 366 940
e 366 664
e 366 469
e 369 888
e 370 983
e 370 687
e 370 839
e 370 647
e 370 815
e 371 888
e 371 865
e 371 928
e 372 609
e 372 496
e 374 917
e 374 702
e 374 732
e 375 512
e 375 812
e 376 883
e 376 747
e 376 435
e 377 643
e 377 809
e 377 779
e 377 422
e 378 956
e 378 941
e 379 720
e 379 661
e 379 419
e 379 766
e 379 633
e 379 547
e 379 602
e 379 987
e 380 698
e 380 449
e 380 576
e 380 770
e 381 447
e 381 857
e 381 771
e 383 662
e 383 913
e 383 930
e 383 724
e 385 794
e 385 972
e 385 469
e 385 517
e 385 721
e 386 933
e 386 676
e 386 585
e 387 792
e 387 563
e 387 724
e 387 480
e 388 735
e 388 893
e 388 971
e 388 693
e 388 543
e 388 783
e 389 510
e 389 858
e 390 518
e 390 443
e 390 569
e 391 987
e 391 573
e 395 498
e 395 687
e 396 455
e 396 815
e 396 732
e 397 707
e 397 946
e 397 889
e 397 658
e 398 709
e 398 834
e 399 930
e 400 725
e 400 581
e 400 713
e 400 414
e 400 939
e 401 788
e 401 411
e 402 518
e 402 964
e 402 747
e 402 778
e 404 683
e 404 929
e 405 753
e 405 578
e 405 996
e 405 644
e 406 812
e 407 903
e 407 409
e 407 445
e 407 554
e 407 820
e 407 844
e 408 952
e 408 963
e 408 796
e 408 554
e 408 843
e 409 481
e 410 773
e 410 932
e 410 698
e 410 655
e 411 962
e 411 714
e 411 906
e 412 921
e 412 538
e 412 517
e 414 931
e 414 787
e 414 443
e 414 774
e 415 984
e 415 490
e 417 680
e 417 1000
e 418 888
e 418 446
e 418 905
e 419 512
e 419 552
e 420 779
e 420 812
e 422 880
e 422 521
e 422 825
e 424 686
e 424 711
e 424 639
e 425 806
e 426 869
e 426 500
e 426 781
e 428 475
e 428 973
e 428 868
e 428 681
e 429 561
e 430 973
e 430 620
e 431 606
e 431 900
e 432 569
e 432 714
e 432 856
e 432 475
e 433 625
e 433 530
e 434 681
e 434 579
e 435 497
e 435 479
e 435 851
e 437 995
e 438 933
e 438 538
e 439 492
e 439 554
e 439 787
e 439 499
e 439 866
e 440 474
e 440 712
e 440 918
e 440 632
e 441 475
e 441 880
e 441 671
e 443 550
e 443 444
e 444 534
e 444 726
e 445 530
e 446 641
e 447 531
e 447 496
e 448 530
e 448 575
e 448 672
e 449 687
e 450 822
e 450 721
e 450 607
e 450 481
e 451 565
e 454 846
e 456 481
e 456 804
e 457 847
e 457 896
e 457 882
e 458 724
e 459 849
e 459 758
e 459 504
e 459 919
e 460 816
e 460 878
e 462 993
e 462 887
e 463 474
e 463 846
e 464 792
e 464 663
e 464 550
e 464 668
e 465 475
e 465 844
e 466 818
e 466 602
e 466 480
e 467 944
e 468 474
e 468 581
e 468 610
e 469 937
e 469 936
e 469 750
e 469 901
e 471 896
e 471 847
e 471 949
e 472 622
e 472 571
e 473 829
e 473 519
e 473 835
e 474 960
e 474 769
e 475 478
e 475 843
e 476 981
e 476 582
e 476 700
e 476 780
e 477 653
e 478 726
e 478 873
e 479 553
e 479 887
e 480 725
e 480 490
e 480 851
e 480 575
e 481 971
e 482 579
e 482 725
e 482 571
e 483 486
e 484 727
e 486 770
e 488 957
e 488 572
e 490 982
e 491 733
e 491 741
e 492 976
e 492 815
e 492 753
e 493 935
e 493 720
e 493 662
e 493 549
e 494 542
e 494 871
e 494 728
e 494 558
e 494 672
e 496 950
e 497 572
e 497 873
e 497 622
e 497 703
e 498 681
e 498 652
e 498 1000
e 498 612
e 498 785
e 499 530
e 499 871
e 500 532
e 500 671
e 502 607
e 502 889
e 504 556
e 506 730
e 506 714
e 506 509
e 508 871
e 508 778
e 509 728
e 509 609
e 509 758
e 509 549
e 509 762
e 510 541
e 510 862
e 510 652
e 512 724
e 512 774
e 512 709
e 513 631
e 513 848
e 515 602
e 515 597
e 515 847
e 516 732
e 517 849
e 517 696
e 518 696
e 518 778
e 518 990
e 519 581
e 519 531
e 520 870
e 520 689
e 523 647
e 523 755
e 523 627
e 524 540
e 524 593
e 525 894
e 525 575
e 528 567
e 528 624
e 529 660
e 529 572
e 529 818
e 530 559
e 530 762
e 531 576
e 532 926
e 532 597
e 534 605
e 534 559
e 534 571
e 538 708
e 538 857
e 538 946
e 538 698
e 538 625
e 539 713
e 539 903
e 540 698
e 540 899
e 540 905
e 541 882
e 541 886
e 542 973
e 542 619
e 542 939
e 542 816
e 542 687
e 543 935
e 543 937
e 544 592
e 544 898
e 545 564
e 546 979
e 547 598
e 547 984
e 547 710
e 548 1000
e 548 971
e 549 753
e 550 622
e 550 797
e 550 568
e 552 805
e 554 678
e 556 758
e 558 938
e 559 794
e 560 660
e 560 766
e 561 663
e 561 786
e 562 936
e 562 918
e 562 998
e 563 592
e 564 834
e 564 943
e 565 680
e 565 610
e 565 836
e 565 713
e 566 885
e 566 867
e 567 791
e 567 689
e 567 997
e 568 728
e 568 805
e 568 759
e 569 989
e 570 843
e 570 885
e 570 982
e 571 873
e 571 760
e 571 685
e 573 896
e 574 762
e 574 908
e 575 926
e 576 612
e 576 731
e 576 781
e 578 833
e 579 841
e 580 750
e 580 920
e 581 833
e 581 758
e 585 675
e 586 721
e 587 971
e 588 823
e 590 949
e 592 798
e 592 668
e 593 801
e 593 976
e 595 940
e 595 749
e 595 971
e 597 726
e 597 668
e 597 696
e 597 606
e 598 764
e 600 616
e 601 769
e 601 964
e 602 653
e 602 664
e 602 952
e 602 888
e 602 621
e 604 779
e 604 752
e 605 791
e 606 839
e 606 632
e 607 989
e 608 998
e 608 901
e 610 755
e 610 670
e 612 664
e 612 783
e 613 852
e 613 897
e 614 837
e 614 752
e 615 858
e 615 779
e 616 869
e 617 689
e 617 994
e 617 623
e 618 897
e 619 711
e 619 951
e 619 911
e 619 823
e 620 843
e 621 741
e 622 785
e 622 671
e 622 878
e 622 896
e 623 752
e 623 851
e 625 824
e 627 753
e 627 639
e 627 752
e 631 990
e 632 856
e 632 642
e 632 726
e 632 892
e 633 641
e 633 892
e 634 909
e 634 667
e 634 832
e 635 738
e 635 664
e 637 893
e 637 774
e 639 983
e 640 987
e 640 672
e 641 943
e 642 942
e 642 724
e 643 813
e 643 970
e 644 850
e 644 817
e 644 751
e 644 791
e 648 787
e 648 982
e 649 776
e 649 824
e 649 753
e 651 995
e 651 775
e 651 820
e 651 906
e 652 934
e 653 687
e 659 952
e 659 766
e 660 942
e 660 887
e 661 797
e 661 675
e 662 673
e 662 883
e 663 713
e 664 692
e 667 740
e 667 678
e 668 956
e 669 920
e 670 971
e 670 957
e 670 913
e 671 850
e 675 683
e 675 707
e 676 829
e 676 883
e 676 831
e 677 764
e 677 752
e 677 707
e 678 861
e 680 976
e 682 692
e 683 739
e 684 898
e 685 720
e 686 748
e 687 982
e 689 806
e 689 858
e 692 749
e 692 896
e 696 849
e 700 703
e 702 979
e 702 839
e 703 959
e 703 944
e 706 979
e 706 838
e 707 843
e 707 756
e 708 729
e 708 952
e 708 918
e 709 994
e 711 762
e 711 740
e 711 714
e 712 873
e 712 717
e 713 739
e 715 867
e 717 768
e 720 748
e 721 794
e 721 768
e 722 764
e 725 957
e 726 778
e 726 861
e 727 832
e 728 786
e 729 894
e 729 778
e 729 769
e 731 870
e 731 737
e 732 785
e 735 777
e 735 848
e 735 839
e 737 777
e 737 813
e 738 897
e 738 928
e 739 979
e 740 748
e 740 835
e 740 770
e 740 978
e 745 777
e 745 852
e 745 951
e 747 786
e 748 887
e 751 838
e 752 833
e 755 771
e 756 972
e 758 966
e 759 936
e 762 788
e 763 830
e 763 841
e 765 776
e 768 822
e 769 926
e 770 906
e 770 954
e 771 854
e 773 820
e 774 801
e 774 832
e 774 806
e 775 819
e 776 920
e 776 832
e 777 806
e 778 996
e 779 945
e 780 913
e 781 821
e 781 873
e 786 817
e 786 979
e 793 946
e 793 861
e 793 881
e 794 983
e 798 871
e 798 836
e 801 924
e 802 848
e 802 813
e 802 903
e 802 968
e 804 843
e 805 871
e 806 865
e 809 852
e 811 961
e 812 998
e 812 850
e 815 951
e 816 836
e 817 920
e 818 1000
e 819 857
e 819 831
e 822 917
e 825 921
e 829 915
e 831 994
e 833 865
e 833 931
e 834 981
e 834 929
e 836 903
e 836 915
e 837 973
e 838 981
e 839 863
e 843 993
e 849 930
e 851 908
e 856 911
e 858 859
e 862 918
e 863 917
e 867 968
e 869 930
e 870 937
e 873 898
e 878 888
e 878 940
e 883 905
e 885 898
e 886 964
e 891 927
e 893 970
e 896 1000
e 900 933
e 903 978
e 909 990
e 916 978
e 918 970
e 919 951
e 924 966
e 932 954
e 933 949
e 938 966
e 940 968
e 959 989
e 961 990
